# Solution for model FSG
# Objective value = 3.3737853013380068e+03
x_0_1 0
x_0_2 1
x_0_3 0
x_0_4 0
x_0_5 1
x_0_6 0
x_0_7 0
x_0_8 0
x_0_9 0
x_1_2 0
x_1_3 0
x_1_4 0
x_1_5 0
x_1_6 0
x_1_7 1
x_1_8 0
x_1_9 0
x_2_1 0
x_2_3 1
x_2_4 0
x_2_5 0
x_2_6 0
x_2_7 0
x_2_8 0
x_2_9 0
x_3_1 0
x_3_2 0
x_3_4 1
x_3_5 0
x_3_6 0
x_3_7 0
x_3_8 0
x_3_9 0
x_4_1 0
x_4_2 0
x_4_3 0
x_4_5 0
x_4_6 0
x_4_7 0
x_4_8 0
x_4_9 1
x_5_1 1
x_5_2 0
x_5_3 0
x_5_4 0
x_5_6 0
x_5_7 0
x_5_8 0
x_5_9 0
x_6_1 0
x_6_2 0
x_6_3 0
x_6_4 0
x_6_5 0
x_6_7 0
x_6_8 1
x_6_9 0
x_7_1 0
x_7_2 0
x_7_3 0
x_7_4 0
x_7_5 0
x_7_6 1
x_7_8 0
x_7_9 0
U_1_1 1
U_1_2 0
U_1_3 0
U_2_1 0
U_2_2 0
U_2_3 1
U_3_1 0
U_3_2 0
U_3_3 1
U_4_1 0
U_4_2 0
U_4_3 1
U_5_1 1
U_5_2 0
U_5_3 0
U_6_1 0
U_6_2 0
U_6_3 1
U_7_1 0
U_7_2 1
U_7_3 0
U_8_1 0
U_8_2 0
U_8_3 1
U_9_1 0
U_9_2 0
U_9_3 1
TBar_0 0
TBar_1 7.1074204569579251e+00
TBar_2 30
TBar_3 3.1757868026900766e+01
TBar_4 3.9729066180252623e+01
TBar_5 1.2952219886953742e+00
TBar_6 3.7892579543042075e+01
TBar_7 30
TBar_8 4.3381222362537621e+01
TBar_9 4.4796925688960421e+01
y_0_1_1 0
y_0_1_2 0
y_0_1_3 0
y_0_1_4 0
y_0_1_5 0
y_0_2_1 0
y_0_2_2 0
y_0_2_3 0
y_0_2_4 0
y_0_2_5 0
y_0_3_1 0
y_0_3_2 0
y_0_3_3 0
y_0_3_4 0
y_0_3_5 0
y_0_4_1 0
y_0_4_2 0
y_0_4_3 0
y_0_4_4 0
y_0_4_5 0
y_0_5_1 0
y_0_5_2 0
y_0_5_3 0
y_0_5_4 0
y_0_5_5 0
y_0_6_1 0
y_0_6_2 0
y_0_6_3 0
y_0_6_4 0
y_0_6_5 0
y_0_7_1 0
y_0_7_2 0
y_0_7_3 0
y_0_7_4 0
y_0_7_5 0
y_0_8_1 0
y_0_8_2 0
y_0_8_3 0
y_0_8_4 0
y_0_8_5 0
y_0_9_1 0
y_0_9_2 0
y_0_9_3 0
y_0_9_4 0
y_0_9_5 0
y_1_2_1 0
y_1_2_2 0
y_1_2_3 0
y_1_2_4 0
y_1_2_5 0
y_1_3_1 0
y_1_3_2 0
y_1_3_3 0
y_1_3_4 0
y_1_3_5 0
y_1_4_1 0
y_1_4_2 0
y_1_4_3 0
y_1_4_4 0
y_1_4_5 0
y_1_5_1 0
y_1_5_2 0
y_1_5_3 0
y_1_5_4 0
y_1_5_5 0
y_1_6_1 0
y_1_6_2 0
y_1_6_3 0
y_1_6_4 0
y_1_6_5 0
y_1_7_1 0
y_1_7_2 0
y_1_7_3 0
y_1_7_4 0
y_1_7_5 0
y_1_8_1 0
y_1_8_2 0
y_1_8_3 0
y_1_8_4 0
y_1_8_5 0
y_1_9_1 0
y_1_9_2 0
y_1_9_3 0
y_1_9_4 0
y_1_9_5 0
y_2_1_1 0
y_2_1_2 0
y_2_1_3 0
y_2_1_4 0
y_2_1_5 0
y_2_3_1 1
y_2_3_2 1
y_2_3_3 1
y_2_3_4 1
y_2_3_5 1
y_2_4_1 0
y_2_4_2 0
y_2_4_3 0
y_2_4_4 0
y_2_4_5 0
y_2_5_1 0
y_2_5_2 0
y_2_5_3 0
y_2_5_4 0
y_2_5_5 0
y_2_6_1 0
y_2_6_2 0
y_2_6_3 0
y_2_6_4 0
y_2_6_5 0
y_2_7_1 0
y_2_7_2 0
y_2_7_3 0
y_2_7_4 0
y_2_7_5 0
y_2_8_1 0
y_2_8_2 0
y_2_8_3 0
y_2_8_4 0
y_2_8_5 0
y_2_9_1 0
y_2_9_2 0
y_2_9_3 0
y_2_9_4 0
y_2_9_5 0
y_3_1_1 0
y_3_1_2 0
y_3_1_3 0
y_3_1_4 0
y_3_1_5 0
y_3_2_1 0
y_3_2_2 0
y_3_2_3 0
y_3_2_4 0
y_3_2_5 0
y_3_4_1 1
y_3_4_2 1
y_3_4_3 1
y_3_4_4 1
y_3_4_5 1
y_3_5_1 0
y_3_5_2 0
y_3_5_3 0
y_3_5_4 0
y_3_5_5 0
y_3_6_1 0
y_3_6_2 0
y_3_6_3 0
y_3_6_4 0
y_3_6_5 0
y_3_7_1 0
y_3_7_2 0
y_3_7_3 0
y_3_7_4 0
y_3_7_5 0
y_3_8_1 0
y_3_8_2 0
y_3_8_3 0
y_3_8_4 0
y_3_8_5 0
y_3_9_1 0
y_3_9_2 0
y_3_9_3 0
y_3_9_4 0
y_3_9_5 0
y_4_1_1 0
y_4_1_2 0
y_4_1_3 0
y_4_1_4 0
y_4_1_5 0
y_4_2_1 0
y_4_2_2 0
y_4_2_3 0
y_4_2_4 0
y_4_2_5 0
y_4_3_1 0
y_4_3_2 0
y_4_3_3 0
y_4_3_4 0
y_4_3_5 0
y_4_5_1 0
y_4_5_2 0
y_4_5_3 0
y_4_5_4 0
y_4_5_5 0
y_4_6_1 0
y_4_6_2 0
y_4_6_3 0
y_4_6_4 0
y_4_6_5 0
y_4_7_1 0
y_4_7_2 0
y_4_7_3 0
y_4_7_4 0
y_4_7_5 0
y_4_8_1 0
y_4_8_2 0
y_4_8_3 0
y_4_8_4 0
y_4_8_5 0
y_4_9_1 1
y_4_9_2 1
y_4_9_3 1
y_4_9_4 1
y_4_9_5 1
y_5_1_1 0
y_5_1_2 0
y_5_1_3 0
y_5_1_4 0
y_5_1_5 0
y_5_2_1 0
y_5_2_2 0
y_5_2_3 0
y_5_2_4 0
y_5_2_5 0
y_5_3_1 0
y_5_3_2 0
y_5_3_3 0
y_5_3_4 0
y_5_3_5 0
y_5_4_1 0
y_5_4_2 0
y_5_4_3 0
y_5_4_4 0
y_5_4_5 0
y_5_6_1 0
y_5_6_2 0
y_5_6_3 0
y_5_6_4 0
y_5_6_5 0
y_5_7_1 0
y_5_7_2 0
y_5_7_3 0
y_5_7_4 0
y_5_7_5 0
y_5_8_1 0
y_5_8_2 0
y_5_8_3 0
y_5_8_4 0
y_5_8_5 0
y_5_9_1 0
y_5_9_2 0
y_5_9_3 0
y_5_9_4 0
y_5_9_5 0
y_6_1_1 0
y_6_1_2 0
y_6_1_3 0
y_6_1_4 0
y_6_1_5 0
y_6_2_1 0
y_6_2_2 0
y_6_2_3 0
y_6_2_4 0
y_6_2_5 0
y_6_3_1 0
y_6_3_2 0
y_6_3_3 0
y_6_3_4 0
y_6_3_5 0
y_6_4_1 0
y_6_4_2 0
y_6_4_3 0
y_6_4_4 0
y_6_4_5 0
y_6_5_1 0
y_6_5_2 0
y_6_5_3 0
y_6_5_4 0
y_6_5_5 0
y_6_7_1 0
y_6_7_2 0
y_6_7_3 0
y_6_7_4 0
y_6_7_5 0
y_6_8_1 1
y_6_8_2 1
y_6_8_3 1
y_6_8_4 1
y_6_8_5 1
y_6_9_1 0
y_6_9_2 0
y_6_9_3 0
y_6_9_4 0
y_6_9_5 0
y_7_1_1 0
y_7_1_2 0
y_7_1_3 0
y_7_1_4 0
y_7_1_5 0
y_7_2_1 0
y_7_2_2 0
y_7_2_3 0
y_7_2_4 0
y_7_2_5 0
y_7_3_1 0
y_7_3_2 0
y_7_3_3 0
y_7_3_4 0
y_7_3_5 0
y_7_4_1 0
y_7_4_2 0
y_7_4_3 0
y_7_4_4 0
y_7_4_5 0
y_7_5_1 0
y_7_5_2 0
y_7_5_3 0
y_7_5_4 0
y_7_5_5 0
y_7_6_1 1
y_7_6_2 1
y_7_6_3 1
y_7_6_4 1
y_7_6_5 1
y_7_8_1 0
y_7_8_2 0
y_7_8_3 0
y_7_8_4 0
y_7_8_5 0
y_7_9_1 0
y_7_9_2 0
y_7_9_3 0
y_7_9_4 0
y_7_9_5 0
Q_0_1 0
Q_0_2 0
Q_0_3 0
Q_0_4 0
Q_0_5 0
Q_1_1 7.2995000000000516e+01
Q_1_2 5.3240000000000506e+01
Q_1_3 6.9065000000000509e+01
Q_1_4 64.0100000000005
Q_1_5 68.9300000000005
Q_2_1 1.0334500000000028e+02
Q_2_2 1.1245500000000028e+02
Q_2_3 1.0791500000000029e+02
Q_2_4 1.0328500000000028e+02
Q_2_5 102.25
Q_3_1 1.5548000000000093e+02
Q_3_2 1.5912500000000094e+02
Q_3_3 1.5878500000000091e+02
Q_3_4 1.5782000000000093e+02
Q_3_5 1.5714500000000092e+02
Q_4_1 266.2
Q_4_2 265.55
Q_4_3 2.6406000000000142e+02
Q_4_4 2.6831000000000142e+02
Q_4_5 2.6659000000000140e+02
Q_5_1 4.1910000000000508e+01
Q_5_2 2.9475000000000509e+01
Q_5_3 3.8040000000000511e+01
Q_5_4 2.9490000000000510e+01
Q_5_5 3.9585000000000505e+01
Q_6_1 2.4806000000000051e+02
Q_6_2 2.4643500000000049e+02
Q_6_3 2.4893500000000051e+02
Q_6_4 2.3806500000000048e+02
Q_6_5 2.3990500000000051e+02
Q_7_1 1.6132000000000016e+02
Q_7_2 1.4738000000000014e+02
Q_7_3 1.5559000000000015e+02
Q_7_4 1.5383000000000013e+02
Q_7_5 1.4587500000000014e+02
Q_8_1 2.4806000000000051e+02
Q_8_2 2.4643500000000049e+02
Q_8_3 2.4893500000000051e+02
Q_8_4 2.3806500000000048e+02
Q_8_5 2.3990500000000051e+02
Q_9_1 266.2
Q_9_2 265.55
Q_9_3 2.6406000000000142e+02
Q_9_4 2.6831000000000142e+02
Q_9_5 2.6659000000000140e+02
R_8_1 1.4806000000000051e+02
R_8_2 1.4643500000000049e+02
R_8_3 1.4893500000000051e+02
R_8_4 1.3806500000000048e+02
R_8_5 1.3990500000000051e+02
R_9_1 166.2
R_9_2 165.55
R_9_3 1.6406000000000142e+02
R_9_4 1.6831000000000142e+02
R_9_5 1.6659000000000140e+02
L_1_1 10.21
L_1_2 8.51
L_1_3 9.65
L_1_4 1.1155000000000001e+01
L_1_5 11.55
L_2_1 0
L_2_2 0
L_2_3 0
L_2_4 0
L_2_5 0
L_3_1 0
L_3_2 0
L_3_3 0
L_3_4 0
L_3_5 0
L_4_1 0
L_4_2 0
L_4_3 0
L_4_4 0
L_4_5 0
L_5_1 8.205
L_5_2 9.79
L_5_3 1.2905000000000001e+01
L_5_4 7.68
L_5_5 10.98
L_6_1 0
L_6_2 0
L_6_3 0
L_6_4 0
L_6_5 0
L_7_1 4.575
L_7_2 5.4
L_7_3 2.6
L_7_4 5.58
L_7_5 5.66
rho_1_1 0
rho_1_2 0
rho_1_3 0
rho_1_4 0
rho_1_5 0
rho_2_1 1
rho_2_2 1
rho_2_3 1
rho_2_4 1
rho_2_5 1
rho_3_1 1
rho_3_2 1
rho_3_3 1
rho_3_4 1
rho_3_5 1
rho_4_1 1
rho_4_2 1
rho_4_3 1
rho_4_4 1
rho_4_5 1
rho_5_1 0
rho_5_2 0
rho_5_3 0
rho_5_4 0
rho_5_5 0
rho_6_1 1
rho_6_2 1
rho_6_3 1
rho_6_4 1
rho_6_5 1
rho_7_1 1
rho_7_2 1
rho_7_3 1
rho_7_4 1
rho_7_5 1
lambd_1_1 0
lambd_1_2 0
lambd_1_3 0
lambd_1_4 0
lambd_1_5 0
lambd_2_1 0
lambd_2_2 0
lambd_2_3 0
lambd_2_4 0
lambd_2_5 0
lambd_3_1 0
lambd_3_2 0
lambd_3_3 0
lambd_3_4 0
lambd_3_5 0
lambd_4_1 0
lambd_4_2 0
lambd_4_3 0
lambd_4_4 0
lambd_4_5 0
lambd_5_1 0
lambd_5_2 0
lambd_5_3 0
lambd_5_4 0
lambd_5_5 0
lambd_6_1 0
lambd_6_2 0
lambd_6_3 0
lambd_6_4 0
lambd_6_5 0
lambd_7_1 0
lambd_7_2 0
lambd_7_3 0
lambd_7_4 0
lambd_7_5 0
alpha_1_1 0
alpha_1_2 0
alpha_1_3 0
alpha_1_4 0
alpha_1_5 0
alpha_2_1 1
alpha_2_2 1
alpha_2_3 1
alpha_2_4 1
alpha_2_5 1
alpha_3_1 0
alpha_3_2 0
alpha_3_3 0
alpha_3_4 0
alpha_3_5 0
alpha_4_1 0
alpha_4_2 0
alpha_4_3 0
alpha_4_4 0
alpha_4_5 0
alpha_5_1 0
alpha_5_2 0
alpha_5_3 0
alpha_5_4 0
alpha_5_5 0
alpha_6_1 0
alpha_6_2 0
alpha_6_3 0
alpha_6_4 0
alpha_6_5 0
alpha_7_1 1
alpha_7_2 1
alpha_7_3 1
alpha_7_4 1
alpha_7_5 1
